EE324/Module_1/formal/Bounce_Counter_FSM/FSM/model/design_smt2.smt2
; SMT-LIBv2 description generated by Yosys 0.8 (git sha1 UNKNOWN, clang 7.0.1 -march=x86-64 -mtune=generic -O2 -fstack-protector-strong -fno-plt -fPIC -Os)
; yosys-smt2-module Bounce_Counter_FSM
(declare-sort |Bounce_Counter_FSM_s| 0)
(declare-fun |Bounce_Counter_FSM_is| (|Bounce_Counter_FSM_s|) Bool)
; yosys-smt2-wire w_Signal 1
(declare-fun |Bounce_Counter_FSM#0| (|Bounce_Counter_FSM_s|) Bool) ; \i_Signal
(define-fun |Bounce_Counter_FSM_n w_Signal| ((state |Bounce_Counter_FSM_s|)) Bool (|Bounce_Counter_FSM#0| state))
; yosys-smt2-wire w_RST 1
(declare-fun |Bounce_Counter_FSM#1| (|Bounce_Counter_FSM_s|) Bool) ; \i_RST
(define-fun |Bounce_Counter_FSM_n w_RST| ((state |Bounce_Counter_FSM_s|)) Bool (|Bounce_Counter_FSM#1| state))
; yosys-smt2-wire w_100MHZCLK 1
(declare-fun |Bounce_Counter_FSM#2| (|Bounce_Counter_FSM_s|) Bool) ; \i_100MHZCLK
(define-fun |Bounce_Counter_FSM_n w_100MHZCLK| ((state |Bounce_Counter_FSM_s|)) Bool (|Bounce_Counter_FSM#2| state))
; yosys-smt2-register r_valid 1
; yosys-smt2-wire r_valid 1
(declare-fun |Bounce_Counter_FSM#3| (|Bounce_Counter_FSM_s|) (_ BitVec 1)) ; \r_valid
(define-fun |Bounce_Counter_FSM_n r_valid| ((state |Bounce_Counter_FSM_s|)) Bool (= ((_ extract 0 0) (|Bounce_Counter_FSM#3| state)) #b1))
; yosys-smt2-wire r_NEXT_STATE 2
(define-fun |Bounce_Counter_FSM#4| ((state |Bounce_Counter_FSM_s|)) (_ BitVec 2) (ite (|Bounce_Counter_FSM#0| state) #b01 #b10)) ; $3\r_NEXT_STATE[1:0]
(define-fun |Bounce_Counter_FSM#5| ((state |Bounce_Counter_FSM_s|)) (_ BitVec 1) (ite (|Bounce_Counter_FSM#0| state) #b1 #b0)) ; $2\r_NEXT_STATE[1:0]
(declare-fun |Bounce_Counter_FSM#6| (|Bounce_Counter_FSM_s|) (_ BitVec 2)) ; $auto$async2sync.cc:104:execute$339
(define-fun |Bounce_Counter_FSM#7| ((state |Bounce_Counter_FSM_s|)) (_ BitVec 2) (ite (|Bounce_Counter_FSM#1| state) #b00 (|Bounce_Counter_FSM#6| state))) ; \r_CURRENT_STATE
(define-fun |Bounce_Counter_FSM#8| ((state |Bounce_Counter_FSM_s|)) Bool (= (|Bounce_Counter_FSM#7| state) #b10)) ; $eq$Bounce_Counter_FSM.v:130$75_Y
(define-fun |Bounce_Counter_FSM#9| ((state |Bounce_Counter_FSM_s|)) Bool (= (|Bounce_Counter_FSM#7| state) #b01)) ; $eq$Bounce_Counter_FSM.v:102$27_Y
(define-fun |Bounce_Counter_FSM#10| ((state |Bounce_Counter_FSM_s|)) Bool (not (or  (= ((_ extract 0 0) (|Bounce_Counter_FSM#7| state)) #b1) (= ((_ extract 1 1) (|Bounce_Counter_FSM#7| state)) #b1)))) ; $eq$Bounce_Counter_FSM.v:122$62_Y
(define-fun |Bounce_Counter_FSM#11| ((state |Bounce_Counter_FSM_s|)) (_ BitVec 2) (ite (|Bounce_Counter_FSM#10| state) (concat #b0 (|Bounce_Counter_FSM#5| state)) (ite (|Bounce_Counter_FSM#9| state) (|Bounce_Counter_FSM#4| state) (ite (|Bounce_Counter_FSM#8| state) #b10 #b00)))) ; \r_NEXT_STATE
(define-fun |Bounce_Counter_FSM_n r_NEXT_STATE| ((state |Bounce_Counter_FSM_s|)) (_ BitVec 2) (|Bounce_Counter_FSM#11| state))
; yosys-smt2-wire r_CURRENT_STATE 2
(define-fun |Bounce_Counter_FSM_n r_CURRENT_STATE| ((state |Bounce_Counter_FSM_s|)) (_ BitVec 2) (|Bounce_Counter_FSM#7| state))
; yosys-smt2-wire r_COUNTER 14
(declare-fun |Bounce_Counter_FSM#12| (|Bounce_Counter_FSM_s|) (_ BitVec 14)) ; $auto$async2sync.cc:104:execute$335
(define-fun |Bounce_Counter_FSM#13| ((state |Bounce_Counter_FSM_s|)) (_ BitVec 14) (ite (|Bounce_Counter_FSM#1| state) #b00000000000000 (|Bounce_Counter_FSM#12| state))) ; \r_COUNTER
(define-fun |Bounce_Counter_FSM_n r_COUNTER| ((state |Bounce_Counter_FSM_s|)) (_ BitVec 14) (|Bounce_Counter_FSM#13| state))
; yosys-smt2-wire r_CEN 1
(declare-fun |Bounce_Counter_FSM#14| (|Bounce_Counter_FSM_s|) (_ BitVec 1)) ; $auto$async2sync.cc:104:execute$331
(define-fun |Bounce_Counter_FSM#15| ((state |Bounce_Counter_FSM_s|)) (_ BitVec 1) (ite (|Bounce_Counter_FSM#1| state) #b0 (|Bounce_Counter_FSM#14| state))) ; \r_CEN
(define-fun |Bounce_Counter_FSM_n r_CEN| ((state |Bounce_Counter_FSM_s|)) Bool (= ((_ extract 0 0) (|Bounce_Counter_FSM#15| state)) #b1))
; yosys-smt2-output o_DATA 14
; yosys-smt2-wire o_DATA 14
(define-fun |Bounce_Counter_FSM_n o_DATA| ((state |Bounce_Counter_FSM_s|)) (_ BitVec 14) (|Bounce_Counter_FSM#13| state))
; yosys-smt2-output o_CEN 1
; yosys-smt2-wire o_CEN 1
(define-fun |Bounce_Counter_FSM_n o_CEN| ((state |Bounce_Counter_FSM_s|)) Bool (= ((_ extract 0 0) (|Bounce_Counter_FSM#15| state)) #b1))
; yosys-smt2-input i_Signal 1
; yosys-smt2-wire i_Signal 1
(define-fun |Bounce_Counter_FSM_n i_Signal| ((state |Bounce_Counter_FSM_s|)) Bool (|Bounce_Counter_FSM#0| state))
; yosys-smt2-input i_RST 1
; yosys-smt2-wire i_RST 1
(define-fun |Bounce_Counter_FSM_n i_RST| ((state |Bounce_Counter_FSM_s|)) Bool (|Bounce_Counter_FSM#1| state))
; yosys-smt2-input i_100MHZCLK 1
; yosys-smt2-wire i_100MHZCLK 1
(define-fun |Bounce_Counter_FSM_n i_100MHZCLK| ((state |Bounce_Counter_FSM_s|)) Bool (|Bounce_Counter_FSM#2| state))
; yosys-smt2-register $past$Bounce_Counter_FSM.v:127$4$0 14
(declare-fun |Bounce_Counter_FSM#16| (|Bounce_Counter_FSM_s|) (_ BitVec 14)) ; $past$Bounce_Counter_FSM.v:127$4$0
(define-fun |Bounce_Counter_FSM_n $past$Bounce_Counter_FSM.v:127$4$0| ((state |Bounce_Counter_FSM_s|)) (_ BitVec 14) (|Bounce_Counter_FSM#16| state))
; yosys-smt2-register $past$Bounce_Counter_FSM.v:122$2$0 2
(declare-fun |Bounce_Counter_FSM#17| (|Bounce_Counter_FSM_s|) (_ BitVec 2)) ; $past$Bounce_Counter_FSM.v:122$2$0
(define-fun |Bounce_Counter_FSM_n $past$Bounce_Counter_FSM.v:122$2$0| ((state |Bounce_Counter_FSM_s|)) (_ BitVec 2) (|Bounce_Counter_FSM#17| state))
; yosys-smt2-register $past$Bounce_Counter_FSM.v:121$1$0 1
(declare-fun |Bounce_Counter_FSM#18| (|Bounce_Counter_FSM_s|) (_ BitVec 1)) ; $past$Bounce_Counter_FSM.v:121$1$0
(define-fun |Bounce_Counter_FSM_n $past$Bounce_Counter_FSM.v:121$1$0| ((state |Bounce_Counter_FSM_s|)) Bool (= ((_ extract 0 0) (|Bounce_Counter_FSM#18| state)) #b1))
; yosys-smt2-register $formal$Bounce_Counter_FSM.v:131$14_EN 1
(declare-fun |Bounce_Counter_FSM#19| (|Bounce_Counter_FSM_s|) (_ BitVec 1)) ; $formal$Bounce_Counter_FSM.v:131$14_EN
(define-fun |Bounce_Counter_FSM_n $formal$Bounce_Counter_FSM.v:131$14_EN| ((state |Bounce_Counter_FSM_s|)) Bool (= ((_ extract 0 0) (|Bounce_Counter_FSM#19| state)) #b1))
; yosys-smt2-register $formal$Bounce_Counter_FSM.v:131$14_CHECK 1
(declare-fun |Bounce_Counter_FSM#20| (|Bounce_Counter_FSM_s|) (_ BitVec 1)) ; $formal$Bounce_Counter_FSM.v:131$14_CHECK
(define-fun |Bounce_Counter_FSM_n $formal$Bounce_Counter_FSM.v:131$14_CHECK| ((state |Bounce_Counter_FSM_s|)) Bool (= ((_ extract 0 0) (|Bounce_Counter_FSM#20| state)) #b1))
; yosys-smt2-register $formal$Bounce_Counter_FSM.v:128$13_CHECK 1
(declare-fun |Bounce_Counter_FSM#21| (|Bounce_Counter_FSM_s|) (_ BitVec 1)) ; $formal$Bounce_Counter_FSM.v:128$13_CHECK
(define-fun |Bounce_Counter_FSM_n $formal$Bounce_Counter_FSM.v:128$13_CHECK| ((state |Bounce_Counter_FSM_s|)) Bool (= ((_ extract 0 0) (|Bounce_Counter_FSM#21| state)) #b1))
; yosys-smt2-register $formal$Bounce_Counter_FSM.v:127$12_EN 1
(declare-fun |Bounce_Counter_FSM#22| (|Bounce_Counter_FSM_s|) (_ BitVec 1)) ; $formal$Bounce_Counter_FSM.v:127$12_EN
(define-fun |Bounce_Counter_FSM_n $formal$Bounce_Counter_FSM.v:127$12_EN| ((state |Bounce_Counter_FSM_s|)) Bool (= ((_ extract 0 0) (|Bounce_Counter_FSM#22| state)) #b1))
; yosys-smt2-register $formal$Bounce_Counter_FSM.v:127$12_CHECK 1
(declare-fun |Bounce_Counter_FSM#23| (|Bounce_Counter_FSM_s|) (_ BitVec 1)) ; $formal$Bounce_Counter_FSM.v:127$12_CHECK
(define-fun |Bounce_Counter_FSM_n $formal$Bounce_Counter_FSM.v:127$12_CHECK| ((state |Bounce_Counter_FSM_s|)) Bool (= ((_ extract 0 0) (|Bounce_Counter_FSM#23| state)) #b1))
; yosys-smt2-register $formal$Bounce_Counter_FSM.v:124$11_CHECK 1
(declare-fun |Bounce_Counter_FSM#24| (|Bounce_Counter_FSM_s|) (_ BitVec 1)) ; $formal$Bounce_Counter_FSM.v:124$11_CHECK
(define-fun |Bounce_Counter_FSM_n $formal$Bounce_Counter_FSM.v:124$11_CHECK| ((state |Bounce_Counter_FSM_s|)) Bool (= ((_ extract 0 0) (|Bounce_Counter_FSM#24| state)) #b1))
; yosys-smt2-register $formal$Bounce_Counter_FSM.v:123$10_EN 1
(declare-fun |Bounce_Counter_FSM#25| (|Bounce_Counter_FSM_s|) (_ BitVec 1)) ; $formal$Bounce_Counter_FSM.v:123$10_EN
(define-fun |Bounce_Counter_FSM_n $formal$Bounce_Counter_FSM.v:123$10_EN| ((state |Bounce_Counter_FSM_s|)) Bool (= ((_ extract 0 0) (|Bounce_Counter_FSM#25| state)) #b1))
; yosys-smt2-register $formal$Bounce_Counter_FSM.v:123$10_CHECK 1
(declare-fun |Bounce_Counter_FSM#26| (|Bounce_Counter_FSM_s|) (_ BitVec 1)) ; $formal$Bounce_Counter_FSM.v:123$10_CHECK
(define-fun |Bounce_Counter_FSM_n $formal$Bounce_Counter_FSM.v:123$10_CHECK| ((state |Bounce_Counter_FSM_s|)) Bool (= ((_ extract 0 0) (|Bounce_Counter_FSM#26| state)) #b1))
; yosys-smt2-register $auto$async2sync.cc:104:execute$339 2
(define-fun |Bounce_Counter_FSM_n $auto$async2sync.cc:104:execute$339| ((state |Bounce_Counter_FSM_s|)) (_ BitVec 2) (|Bounce_Counter_FSM#6| state))
; yosys-smt2-register $auto$async2sync.cc:104:execute$335 14
(define-fun |Bounce_Counter_FSM_n $auto$async2sync.cc:104:execute$335| ((state |Bounce_Counter_FSM_s|)) (_ BitVec 14) (|Bounce_Counter_FSM#12| state))
; yosys-smt2-register $auto$async2sync.cc:104:execute$331 1
(define-fun |Bounce_Counter_FSM_n $auto$async2sync.cc:104:execute$331| ((state |Bounce_Counter_FSM_s|)) Bool (= ((_ extract 0 0) (|Bounce_Counter_FSM#14| state)) #b1))
(define-fun |Bounce_Counter_FSM#27| ((state |Bounce_Counter_FSM_s|)) Bool (= (|Bounce_Counter_FSM#21| state) (|Bounce_Counter_FSM#15| state))) ; $0$formal$Bounce_Counter_FSM.v:139$18_CHECK[0:0]$56
(define-fun |Bounce_Counter_FSM#28| ((state |Bounce_Counter_FSM_s|)) (_ BitVec 1) (ite (= ((_ extract 0 0) (|Bounce_Counter_FSM#3| state)) #b1) #b1 #b0)) ; $procmux$226_Y
(define-fun |Bounce_Counter_FSM#29| ((state |Bounce_Counter_FSM_s|)) Bool (not (or  (= ((_ extract 0 0) (|Bounce_Counter_FSM#18| state)) #b1) false))) ; $logic_not$Bounce_Counter_FSM.v:121$58_Y
(define-fun |Bounce_Counter_FSM#30| ((state |Bounce_Counter_FSM_s|)) Bool (and (or  (|Bounce_Counter_FSM#29| state) false) (or  (|Bounce_Counter_FSM#2| state) false))) ; $logic_and$Bounce_Counter_FSM.v:121$59_Y
(define-fun |Bounce_Counter_FSM#31| ((state |Bounce_Counter_FSM_s|)) Bool (and (or  (|Bounce_Counter_FSM#30| state) false) (or  (= ((_ extract 0 0) (|Bounce_Counter_FSM#3| state)) #b1) false))) ; $logic_and$Bounce_Counter_FSM.v:121$61_Y
(define-fun |Bounce_Counter_FSM#32| ((state |Bounce_Counter_FSM_s|)) (_ BitVec 1) (ite (|Bounce_Counter_FSM#31| state) #b0 (|Bounce_Counter_FSM#28| state))) ; $0$formal$Bounce_Counter_FSM.v:137$16_EN[0:0]$53
; yosys-smt2-assume 0 Bounce_Counter_FSM.v:139
(define-fun |Bounce_Counter_FSM_u 0| ((state |Bounce_Counter_FSM_s|)) Bool (or (|Bounce_Counter_FSM#27| state) (not (= ((_ extract 0 0) (|Bounce_Counter_FSM#32| state)) #b1)))) ; $assume$Bounce_Counter_FSM.v:139$93
(define-fun |Bounce_Counter_FSM#33| ((state |Bounce_Counter_FSM_s|)) Bool (= (|Bounce_Counter_FSM#16| state) (|Bounce_Counter_FSM#13| state))) ; $0$formal$Bounce_Counter_FSM.v:138$17_CHECK[0:0]$54
; yosys-smt2-assume 1 Bounce_Counter_FSM.v:138
(define-fun |Bounce_Counter_FSM_u 1| ((state |Bounce_Counter_FSM_s|)) Bool (or (|Bounce_Counter_FSM#33| state) (not (= ((_ extract 0 0) (|Bounce_Counter_FSM#32| state)) #b1)))) ; $assume$Bounce_Counter_FSM.v:138$92
(define-fun |Bounce_Counter_FSM#34| ((state |Bounce_Counter_FSM_s|)) Bool (= (|Bounce_Counter_FSM#7| state) (|Bounce_Counter_FSM#17| state))) ; $0$formal$Bounce_Counter_FSM.v:137$16_CHECK[0:0]$52
; yosys-smt2-assume 2 Bounce_Counter_FSM.v:137
(define-fun |Bounce_Counter_FSM_u 2| ((state |Bounce_Counter_FSM_s|)) Bool (or (|Bounce_Counter_FSM#34| state) (not (= ((_ extract 0 0) (|Bounce_Counter_FSM#32| state)) #b1)))) ; $assume$Bounce_Counter_FSM.v:137$91
; yosys-smt2-assert 0 Bounce_Counter_FSM.v:132
(define-fun |Bounce_Counter_FSM_a 0| ((state |Bounce_Counter_FSM_s|)) Bool (or (= ((_ extract 0 0) (|Bounce_Counter_FSM#24| state)) #b1) (not (= ((_ extract 0 0) (|Bounce_Counter_FSM#19| state)) #b1)))) ; $assert$Bounce_Counter_FSM.v:132$90
; yosys-smt2-assert 1 Bounce_Counter_FSM.v:131
(define-fun |Bounce_Counter_FSM_a 1| ((state |Bounce_Counter_FSM_s|)) Bool (or (= ((_ extract 0 0) (|Bounce_Counter_FSM#20| state)) #b1) (not (= ((_ extract 0 0) (|Bounce_Counter_FSM#19| state)) #b1)))) ; $assert$Bounce_Counter_FSM.v:131$89
; yosys-smt2-assert 2 Bounce_Counter_FSM.v:128
(define-fun |Bounce_Counter_FSM_a 2| ((state |Bounce_Counter_FSM_s|)) Bool (or (= ((_ extract 0 0) (|Bounce_Counter_FSM#21| state)) #b1) (not (= ((_ extract 0 0) (|Bounce_Counter_FSM#22| state)) #b1)))) ; $assert$Bounce_Counter_FSM.v:128$88
; yosys-smt2-assert 3 Bounce_Counter_FSM.v:127
(define-fun |Bounce_Counter_FSM_a 3| ((state |Bounce_Counter_FSM_s|)) Bool (or (= ((_ extract 0 0) (|Bounce_Counter_FSM#23| state)) #b1) (not (= ((_ extract 0 0) (|Bounce_Counter_FSM#22| state)) #b1)))) ; $assert$Bounce_Counter_FSM.v:127$87
; yosys-smt2-assert 4 Bounce_Counter_FSM.v:124
(define-fun |Bounce_Counter_FSM_a 4| ((state |Bounce_Counter_FSM_s|)) Bool (or (= ((_ extract 0 0) (|Bounce_Counter_FSM#24| state)) #b1) (not (= ((_ extract 0 0) (|Bounce_Counter_FSM#25| state)) #b1)))) ; $assert$Bounce_Counter_FSM.v:124$86
; yosys-smt2-assert 5 Bounce_Counter_FSM.v:123
(define-fun |Bounce_Counter_FSM_a 5| ((state |Bounce_Counter_FSM_s|)) Bool (or (= ((_ extract 0 0) (|Bounce_Counter_FSM#26| state)) #b1) (not (= ((_ extract 0 0) (|Bounce_Counter_FSM#25| state)) #b1)))) ; $assert$Bounce_Counter_FSM.v:123$85
(define-fun |Bounce_Counter_FSM#35| ((state |Bounce_Counter_FSM_s|)) Bool (not (or  (= ((_ extract 0 0) (|Bounce_Counter_FSM#13| state)) #b1) (= ((_ extract 1 1) (|Bounce_Counter_FSM#13| state)) #b1) (= ((_ extract 2 2) (|Bounce_Counter_FSM#13| state)) #b1) (= ((_ extract 3 3) (|Bounce_Counter_FSM#13| state)) #b1) (= ((_ extract 4 4) (|Bounce_Counter_FSM#13| state)) #b1) (= ((_ extract 5 5) (|Bounce_Counter_FSM#13| state)) #b1) (= ((_ extract 6 6) (|Bounce_Counter_FSM#13| state)) #b1) (= ((_ extract 7 7) (|Bounce_Counter_FSM#13| state)) #b1) (= ((_ extract 8 8) (|Bounce_Counter_FSM#13| state)) #b1) (= ((_ extract 9 9) (|Bounce_Counter_FSM#13| state)) #b1) (= ((_ extract 10 10) (|Bounce_Counter_FSM#13| state)) #b1) (= ((_ extract 11 11) (|Bounce_Counter_FSM#13| state)) #b1) (= ((_ extract 12 12) (|Bounce_Counter_FSM#13| state)) #b1) (= ((_ extract 13 13) (|Bounce_Counter_FSM#13| state)) #b1)))) ; $0$formal$Bounce_Counter_FSM.v:123$10_CHECK[0:0]$40
(define-fun |Bounce_Counter_FSM#36| ((state |Bounce_Counter_FSM_s|)) Bool (= (|Bounce_Counter_FSM#17| state) (|Bounce_Counter_FSM#7| state))) ; $eq$Bounce_Counter_FSM.v:122$63_Y [0]
(define-fun |Bounce_Counter_FSM#37| ((state |Bounce_Counter_FSM_s|)) Bool (= (|Bounce_Counter_FSM#7| state) (concat #b0 (ite (|Bounce_Counter_FSM#36| state) #b1 #b0)))) ; $eq$Bounce_Counter_FSM.v:122$64_Y
(define-fun |Bounce_Counter_FSM#38| ((state |Bounce_Counter_FSM_s|)) Bool (and (or  (|Bounce_Counter_FSM#10| state) false) (or  (|Bounce_Counter_FSM#37| state) false))) ; $logic_and$Bounce_Counter_FSM.v:122$65_Y
(define-fun |Bounce_Counter_FSM#39| ((state |Bounce_Counter_FSM_s|)) (_ BitVec 1) (ite (|Bounce_Counter_FSM#38| state) #b1 #b0)) ; $procmux$119_Y
(define-fun |Bounce_Counter_FSM#40| ((state |Bounce_Counter_FSM_s|)) (_ BitVec 1) (ite (|Bounce_Counter_FSM#31| state) (|Bounce_Counter_FSM#39| state) #b0)) ; $0$formal$Bounce_Counter_FSM.v:123$10_EN[0:0]$41
(define-fun |Bounce_Counter_FSM#41| ((state |Bounce_Counter_FSM_s|)) (_ BitVec 1) (bvnot (|Bounce_Counter_FSM#15| state))) ; $0$formal$Bounce_Counter_FSM.v:124$11_CHECK[0:0]$42
(define-fun |Bounce_Counter_FSM#42| ((state |Bounce_Counter_FSM_s|)) (_ BitVec 15) (bvadd (concat #b0 (|Bounce_Counter_FSM#16| state)) #b000000000000001)) ; $add$Bounce_Counter_FSM.v:127$72_Y
(define-fun |Bounce_Counter_FSM#43| ((state |Bounce_Counter_FSM_s|)) Bool (= (concat #b0 (|Bounce_Counter_FSM#13| state)) (|Bounce_Counter_FSM#42| state))) ; $0$formal$Bounce_Counter_FSM.v:127$12_CHECK[0:0]$44
(define-fun |Bounce_Counter_FSM#44| ((state |Bounce_Counter_FSM_s|)) Bool (and (or  (|Bounce_Counter_FSM#9| state) false) (or  (|Bounce_Counter_FSM#37| state) false))) ; $logic_and$Bounce_Counter_FSM.v:126$71_Y
(define-fun |Bounce_Counter_FSM#45| ((state |Bounce_Counter_FSM_s|)) (_ BitVec 1) (ite (|Bounce_Counter_FSM#44| state) #b1 #b0)) ; $procmux$143_Y
(define-fun |Bounce_Counter_FSM#46| ((state |Bounce_Counter_FSM_s|)) (_ BitVec 1) (ite (|Bounce_Counter_FSM#38| state) #b0 (|Bounce_Counter_FSM#45| state))) ; $procmux$146_Y
(define-fun |Bounce_Counter_FSM#47| ((state |Bounce_Counter_FSM_s|)) (_ BitVec 1) (ite (|Bounce_Counter_FSM#31| state) (|Bounce_Counter_FSM#46| state) #b0)) ; $0$formal$Bounce_Counter_FSM.v:127$12_EN[0:0]$45
(define-fun |Bounce_Counter_FSM#48| ((state |Bounce_Counter_FSM_s|)) Bool (= (|Bounce_Counter_FSM#13| state) (|Bounce_Counter_FSM#16| state))) ; $0$formal$Bounce_Counter_FSM.v:131$14_CHECK[0:0]$48
(define-fun |Bounce_Counter_FSM#49| ((state |Bounce_Counter_FSM_s|)) Bool (and (or  (|Bounce_Counter_FSM#8| state) false) (or  (|Bounce_Counter_FSM#37| state) false))) ; $logic_and$Bounce_Counter_FSM.v:130$78_Y
(define-fun |Bounce_Counter_FSM#50| ((state |Bounce_Counter_FSM_s|)) (_ BitVec 1) (ite (|Bounce_Counter_FSM#49| state) #b1 #b0)) ; $procmux$179_Y
(define-fun |Bounce_Counter_FSM#51| ((state |Bounce_Counter_FSM_s|)) (_ BitVec 1) (ite (|Bounce_Counter_FSM#44| state) #b0 (|Bounce_Counter_FSM#50| state))) ; $procmux$182_Y
(define-fun |Bounce_Counter_FSM#52| ((state |Bounce_Counter_FSM_s|)) (_ BitVec 1) (ite (|Bounce_Counter_FSM#38| state) #b0 (|Bounce_Counter_FSM#51| state))) ; $procmux$185_Y
(define-fun |Bounce_Counter_FSM#53| ((state |Bounce_Counter_FSM_s|)) (_ BitVec 1) (ite (|Bounce_Counter_FSM#31| state) (|Bounce_Counter_FSM#52| state) #b0)) ; $0$formal$Bounce_Counter_FSM.v:131$14_EN[0:0]$49
(define-fun |Bounce_Counter_FSM#54| ((state |Bounce_Counter_FSM_s|)) (_ BitVec 1) (ite (|Bounce_Counter_FSM#9| state) #b1 #b0)) ; $procmux$272_Y
(define-fun |Bounce_Counter_FSM#55| ((state |Bounce_Counter_FSM_s|)) (_ BitVec 1) (ite (|Bounce_Counter_FSM#10| state) #b0 (|Bounce_Counter_FSM#54| state))) ; $0\r_CEN[0:0]
(define-fun |Bounce_Counter_FSM#56| ((state |Bounce_Counter_FSM_s|)) (_ BitVec 1) (ite (|Bounce_Counter_FSM#1| state) #b0 (|Bounce_Counter_FSM#55| state))) ; $auto$async2sync.cc:103:execute$330
(define-fun |Bounce_Counter_FSM#57| ((state |Bounce_Counter_FSM_s|)) (_ BitVec 14) (bvadd (|Bounce_Counter_FSM#13| state) #b00000000000001)) ; $add$Bounce_Counter_FSM.v:103$28_Y
(define-fun |Bounce_Counter_FSM#58| ((state |Bounce_Counter_FSM_s|)) (_ BitVec 14) (ite (|Bounce_Counter_FSM#9| state) (|Bounce_Counter_FSM#57| state) (|Bounce_Counter_FSM#13| state))) ; $procmux$264_Y
(define-fun |Bounce_Counter_FSM#59| ((state |Bounce_Counter_FSM_s|)) (_ BitVec 14) (ite (|Bounce_Counter_FSM#10| state) #b00000000000000 (|Bounce_Counter_FSM#58| state))) ; $0\r_COUNTER[13:0]
(define-fun |Bounce_Counter_FSM#60| ((state |Bounce_Counter_FSM_s|)) (_ BitVec 14) (ite (|Bounce_Counter_FSM#1| state) #b00000000000000 (|Bounce_Counter_FSM#59| state))) ; $auto$async2sync.cc:103:execute$334
(define-fun |Bounce_Counter_FSM#61| ((state |Bounce_Counter_FSM_s|)) (_ BitVec 2) (ite (|Bounce_Counter_FSM#1| state) #b00 (|Bounce_Counter_FSM#11| state))) ; $auto$async2sync.cc:103:execute$338
(define-fun |Bounce_Counter_FSM_a| ((state |Bounce_Counter_FSM_s|)) Bool (and
  (|Bounce_Counter_FSM_a 0| state)
  (|Bounce_Counter_FSM_a 1| state)
  (|Bounce_Counter_FSM_a 2| state)
  (|Bounce_Counter_FSM_a 3| state)
  (|Bounce_Counter_FSM_a 4| state)
  (|Bounce_Counter_FSM_a 5| state)
))
(define-fun |Bounce_Counter_FSM_u| ((state |Bounce_Counter_FSM_s|)) Bool (and
  (|Bounce_Counter_FSM_u 0| state)
  (|Bounce_Counter_FSM_u 1| state)
  (|Bounce_Counter_FSM_u 2| state)
))
(define-fun |Bounce_Counter_FSM_i| ((state |Bounce_Counter_FSM_s|)) Bool (and
  (= (= ((_ extract 0 0) (|Bounce_Counter_FSM#3| state)) #b1) false) ; r_valid
  (= (|Bounce_Counter_FSM#11| state) #b00) ; r_NEXT_STATE
  (= (= ((_ extract 0 0) (|Bounce_Counter_FSM#19| state)) #b1) false) ; $formal$Bounce_Counter_FSM.v:131$14_EN
  (= (= ((_ extract 0 0) (|Bounce_Counter_FSM#22| state)) #b1) false) ; $formal$Bounce_Counter_FSM.v:127$12_EN
  (= (= ((_ extract 0 0) (|Bounce_Counter_FSM#25| state)) #b1) false) ; $formal$Bounce_Counter_FSM.v:123$10_EN
  (= (|Bounce_Counter_FSM#6| state) #b00) ; $auto$async2sync.cc:104:execute$339
  (= (|Bounce_Counter_FSM#12| state) #b00000000000000) ; $auto$async2sync.cc:104:execute$335
  (= (= ((_ extract 0 0) (|Bounce_Counter_FSM#14| state)) #b1) false) ; $auto$async2sync.cc:104:execute$331
))
(define-fun |Bounce_Counter_FSM_h| ((state |Bounce_Counter_FSM_s|)) Bool true)
(define-fun |Bounce_Counter_FSM_t| ((state |Bounce_Counter_FSM_s|) (next_state |Bounce_Counter_FSM_s|)) Bool (and
  (= (ite (|Bounce_Counter_FSM#35| state) #b1 #b0) (|Bounce_Counter_FSM#26| next_state)) ; $procdff$307 $formal$Bounce_Counter_FSM.v:123$10_CHECK
  (= (|Bounce_Counter_FSM#40| state) (|Bounce_Counter_FSM#25| next_state)) ; $procdff$308 $formal$Bounce_Counter_FSM.v:123$10_EN
  (= (|Bounce_Counter_FSM#41| state) (|Bounce_Counter_FSM#24| next_state)) ; $procdff$309 $formal$Bounce_Counter_FSM.v:124$11_CHECK
  (= (ite (|Bounce_Counter_FSM#43| state) #b1 #b0) (|Bounce_Counter_FSM#23| next_state)) ; $procdff$311 $formal$Bounce_Counter_FSM.v:127$12_CHECK
  (= (|Bounce_Counter_FSM#47| state) (|Bounce_Counter_FSM#22| next_state)) ; $procdff$312 $formal$Bounce_Counter_FSM.v:127$12_EN
  (= (|Bounce_Counter_FSM#15| state) (|Bounce_Counter_FSM#21| next_state)) ; $procdff$306 $formal$Bounce_Counter_FSM.v:128$13_CHECK
  (= (ite (|Bounce_Counter_FSM#48| state) #b1 #b0) (|Bounce_Counter_FSM#20| next_state)) ; $procdff$315 $formal$Bounce_Counter_FSM.v:131$14_CHECK
  (= (|Bounce_Counter_FSM#53| state) (|Bounce_Counter_FSM#19| next_state)) ; $procdff$316 $formal$Bounce_Counter_FSM.v:131$14_EN
  (= (ite (|Bounce_Counter_FSM#2| state) #b1 #b0) (|Bounce_Counter_FSM#18| next_state)) ; $procdff$298 $past$Bounce_Counter_FSM.v:121$1$0
  (= (|Bounce_Counter_FSM#7| state) (|Bounce_Counter_FSM#17| next_state)) ; $procdff$299 $past$Bounce_Counter_FSM.v:122$2$0
  (= (|Bounce_Counter_FSM#13| state) (|Bounce_Counter_FSM#16| next_state)) ; $procdff$301 $past$Bounce_Counter_FSM.v:127$4$0
  (= (|Bounce_Counter_FSM#56| state) (|Bounce_Counter_FSM#14| next_state)) ; $procdff$325 $auto$async2sync.cc:104:execute$331
  (= (|Bounce_Counter_FSM#60| state) (|Bounce_Counter_FSM#12| next_state)) ; $procdff$326 $auto$async2sync.cc:104:execute$335
  (= (|Bounce_Counter_FSM#61| state) (|Bounce_Counter_FSM#6| next_state)) ; $procdff$327 $auto$async2sync.cc:104:execute$339
  (= #b1 (|Bounce_Counter_FSM#3| next_state)) ; $procdff$297 \r_valid
)) ; end of module Bounce_Counter_FSM
; yosys-smt2-topmod Bounce_Counter_FSM
; end of yosys output
